NAME: tsp_45
COMMENT: Random TSP instance
TYPE: TSP
DIMENSION: 50
EDGE_WEIGHT_TYPE: EUC_2D
NODE_COORD_SECTION
1 825 725
2 200 816
3 100 385
4 520 540
5 809 152
6 195 476
7 963 152
8 120 266
9 791 302
10 808 227
11 933 241
12 594 387
13 357 951
14 150 412
15 823 484
16 446 236
17 965 987
18 457 329
19 170 388
20 236 290
21 744 76
22 251 883
23 442 534
24 851 161
25 349 228
26 420 399
27 504 725
28 234 345
29 845 129
30 284 600
31 9 439
32 54 671
33 117 191
34 851 669
35 591 204
36 887 982
37 436 753
38 703 886
39 945 462
40 691 490
41 810 80
42 235 193
43 796 329
44 779 558
45 892 881
46 502 329
47 789 745
48 504 84
49 827 14
50 357 164
